50
100028 100053 100047 100034 100100 100019 100041 100020 100063 100027 100035 100075 100032 100056 100091 100010 100006 100023 100077 100062 100023 100033 100017 100046 100004 100070 100090 100096 100074 100096 100001 100029 100097 100078 100041 100095 100062 100082 100029 100019 100044 100013 100038 100097 100033 100000 100004 100017 100079 100036 
237 104 397 155 67 402 918 801 766 222 537 277 173 107 215 928 829 807 801 194 310 627 732 855 881 87 606 672 506 178 474 90 935 866 548 301 909 573 883 849 509 414 599 432 162 306 813 44 47 627 
2476406
